
(set-logic ALL) 

(declare-datatype MyList ((Nil) (Cons (head Real) (tail MyList)) )) 
(declare-fun l0 () MyList) 
(declare-fun l1 () MyList) 
(declare-fun l2 () MyList) 
(declare-fun l3 () MyList) 
(declare-fun i0 () Real) 
(declare-fun i1 () Real) 
(assert (is-Nil Nil) )
(assert (is-Nil Nil) )
(assert (is-Nil Nil) )
(assert (= l3 Nil) )
(assert (and (= l2 l1) (= l1 Nil) (= l2 l2)) )
(assert (is-Cons Nil) )
(assert (= l3 l3) )
(assert (= l0 Nil) )
(check-sat)
